c   #vars: 43   #clauses: 178   #literals: 506
c 
p cnf 43 178
-1 -2 0
-3 -4 0
-5 -6 0
-7 -8 0
-9 -10 0
-11 -12 0
-13 -14 0
-15 -16 0
15 16 42 43 0
11 12 29 30 0
-17 -18 0
-20 -21 0
-22 -23 0
-24 -25 0
-26 -27 0
-17 24 25 33 0
-29 -30 0
-31 -32 0
-7 19 36 37 0
-34 -35 0
3 4 19 -36 0
7 8 -11 28 0
1 2 34 35 0
-36 -37 0
-1 13 14 39 0
-40 -41 0
11 12 42 43 0
-42 -43 0
13 14 17 18 0
-1 -26 0
-2 -27 0
9 10 31 32 0
-7 24 25 33 0
-2 -28 0
-1 -34 0
-2 -35 0
3 4 31 32 0
-2 -39 0
-1 -42 0
-2 -43 0
-24 29 30 38 0
-4 -19 0
20 21 31 32 0
-3 -22 0
-4 -23 0
15 16 20 21 0
-3 -29 0
-4 -30 0
24 25 34 35 0
-3 -31 0
-4 -32 0
-22 26 27 39 0
5 6 -29 38 0
-3 -17 -18 19 0
-5 -17 0
-6 -18 0
-7 -17 -18 19 0
-5 -20 0
-6 -21 0
26 27 40 41 0
-5 -22 0
-6 -23 0
3 4 29 30 0
-6 -38 0
-5 29 30 38 0
-8 -19 0
-7 -20 0
-8 -21 0
7 8 -24 33 0
-8 -28 0
-3 19 36 37 0
-8 -33 0
-13 22 23 39 0
-9 -24 0
-10 -25 0
1 2 26 27 0
-9 -29 0
-10 -30 0
-9 -31 0
-10 -32 0
13 14 -26 39 0
-9 -40 0
-10 -41 0
11 12 17 18 0
-11 -17 0
-12 -18 0
3 4 -22 -23 0
7 8 -17 33 0
-12 -28 0
17 18 34 35 0
-11 -29 0
-12 -30 0
17 18 -24 33 0
-11 -36 0
-12 -37 0
20 21 42 43 0
-11 -40 0
-12 -41 0
11 12 40 41 0
-11 -42 0
-12 -43 0
-7 17 18 33 0
-13 -17 0
-14 -18 0
3 4 -7 19 0
-13 -31 0
-14 -32 0
1 2 -7 28 0
-13 -36 0
-14 -37 0
-17 -18 19 -36 0
-14 -39 0
-15 -20 0
-16 -21 0
1 2 -26 39 0
-15 -36 0
-16 -37 0
-1 22 23 39 0
-15 -40 0
-16 -41 0
5 6 20 21 0
-15 -42 0
-16 -43 0
5 6 17 18 0
-5 24 25 38 0
1 2 -22 39 0
24 25 -29 38 0
1 2 -11 28 0
22 23 -26 39 0
29 30 42 43 0
-1 7 8 28 0
1 2 -13 39 0
7 8 19 -36 0
-18 -33 0
15 16 36 37 0
-17 -34 0
-18 -35 0
29 30 40 41 0
-1 26 27 39 0
22 23 34 35 0
7 8 20 21 0
13 14 -22 39 0
9 10 24 25 0
-3 -4 22 23 0
-19 -37 0
9 10 29 30 0
-20 -31 0
-21 -32 0
15 16 40 41 0
-20 -42 0
-21 -43 0
13 14 36 37 0
-22 -34 0
-23 -35 0
-13 26 27 39 0
5 6 -24 38 0
-7 11 12 28 0
-23 -39 0
3 4 22 23 0
-3 7 8 19 0
-25 -33 0
13 14 31 32 0
-24 -34 0
-25 -35 0
9 10 40 41 0
-25 -38 0
-1 11 12 28 0
-27 -39 0
-26 -40 0
-27 -41 0
5 6 22 23 0
-30 -38 0
1 2 42 43 0
-29 -40 0
-30 -41 0
11 12 36 37 0
-29 -42 0
-30 -43 0
